true true true
presolving:
presolving (0 rounds: 0 fast, 0 medium, 0 exhaustive):
 0 deleted vars, 0 deleted constraints, 0 added constraints, 0 tightened bounds, 0 added holes, 0 changed sides, 0 changed coefficients
 0 implications, 0 cliques
presolved problem has 57 variables (57 bin, 0 int, 0 impl, 0 cont) and 48 constraints
     48 constraints of type <linear>
transformed objective value is always integral (scale: 1)
Presolving Time: 0.00

 time | node  | left  |LP iter|LP it/n|mem/heur|mdpt |vars |cons |rows |cuts |sepa|confs|strbr|  dualbound   | primalbound  |  gap   | compl. 
p 0.0s|     1 |     0 |     0 |     - |shiftand|   0 |  57 |  48 |  48 |   0 |  0 |   0 |   0 |      --      | 9.000000e+00 |    Inf | unknown
 time | node  | left  |LP iter|LP it/n|mem/heur|mdpt |vars |cons |rows |cuts |sepa|confs|strbr|  dualbound   | primalbound  |  gap   | compl. 
  0.0s|     1 |     0 |    43 |     - |  2108k |   0 | 537 |  48 |  48 |   0 |  0 |   0 |   0 | 1.000000e+00 | 9.000000e+00 | 800.00%| unknown
 time | node  | left  |LP iter|LP it/n|mem/heur|mdpt |vars |cons |rows |cuts |sepa|confs|strbr|  dualbound   | primalbound  |  gap   | compl. 
  0.7s|     1 |     0 |   510 |     - |  5871k |   0 |1709 |  48 |  48 |   0 |  0 |   0 |   0 | 8.000000e+00 | 9.000000e+00 |  12.50%| unknown
 time | node  | left  |LP iter|LP it/n|mem/heur|mdpt |vars |cons |rows |cuts |sepa|confs|strbr|  dualbound   | primalbound  |  gap   | compl. 
  0.8s|     1 |     2 |   926 |     - |  6468k |   0 |1709 |  48 |  48 |   0 |  1 |   0 |   0 | 8.000000e+00 | 9.000000e+00 |  12.50%| unknown
 time | node  | left  |LP iter|LP it/n|mem/heur|mdpt |vars |cons |rows |cuts |sepa|confs|strbr|  dualbound   | primalbound  |  gap   | compl. 
  0.8s|     2 |     3 |   952 |  26.0 |  6535k |   1 |1709 |  48 |  48 |   0 |  1 |   0 |   0 | 8.000000e+00 | 9.000000e+00 |  12.50%| unknown
 time | node  | left  |LP iter|LP it/n|mem/heur|mdpt |vars |cons |rows |cuts |sepa|confs|strbr|  dualbound   | primalbound  |  gap   | compl. 
  0.9s|     3 |     4 |   983 |  28.5 |  6690k |   1 |1709 |  48 |  48 |   0 |  1 |   0 |   0 | 8.000000e+00 | 9.000000e+00 |  12.50%| unknown
 time | node  | left  |LP iter|LP it/n|mem/heur|mdpt |vars |cons |rows |cuts |sepa|confs|strbr|  dualbound   | primalbound  |  gap   | compl. 
  0.9s|     4 |     5 |   994 |  22.7 |  6839k |   2 |1709 |  48 |  48 |   0 |  1 |   0 |   0 | 8.000000e+00 | 9.000000e+00 |  12.50%| unknown
 time | node  | left  |LP iter|LP it/n|mem/heur|mdpt |vars |cons |rows |cuts |sepa|confs|strbr|  dualbound   | primalbound  |  gap   | compl. 
  1.0s|     5 |     6 |  1013 |  21.8 |  6846k |   2 |1709 |  48 |  48 |   0 |  1 |   0 |   0 | 8.000000e+00 | 9.000000e+00 |  12.50%| unknown
 time | node  | left  |LP iter|LP it/n|mem/heur|mdpt |vars |cons |rows |cuts |sepa|confs|strbr|  dualbound   | primalbound  |  gap   | compl. 
  1.2s|     6 |     7 |  1016 |  18.0 |  6862k |   3 |1709 |  48 |  48 |   0 |  1 |   0 |   0 | 8.000000e+00 | 9.000000e+00 |  12.50%| unknown
 time | node  | left  |LP iter|LP it/n|mem/heur|mdpt |vars |cons |rows |cuts |sepa|confs|strbr|  dualbound   | primalbound  |  gap   | compl. 
  1.3s|     7 |     8 |  1044 |  19.7 |  6865k |   4 |1709 |  48 |  48 |   0 |  1 |   0 |   0 | 8.000000e+00 | 9.000000e+00 |  12.50%| unknown
 time | node  | left  |LP iter|LP it/n|mem/heur|mdpt |vars |cons |rows |cuts |sepa|confs|strbr|  dualbound   | primalbound  |  gap   | compl. 
  1.4s|     8 |     9 |  1071 |  20.7 |  7129k |   4 |1709 |  48 |  48 |   0 |  1 |   0 |   0 | 8.000000e+00 | 9.000000e+00 |  12.50%| unknown
 time | node  | left  |LP iter|LP it/n|mem/heur|mdpt |vars |cons |rows |cuts |sepa|confs|strbr|  dualbound   | primalbound  |  gap   | compl. 
  1.5s|     9 |    10 |  1076 |  18.8 |  7143k |   5 |1709 |  48 |  48 |   0 |  1 |   0 |   0 | 8.000000e+00 | 9.000000e+00 |  12.50%| unknown
 time | node  | left  |LP iter|LP it/n|mem/heur|mdpt |vars |cons |rows |cuts |sepa|confs|strbr|  dualbound   | primalbound  |  gap   | compl. 
  1.7s|    10 |    11 |  1139 |  23.7 |  7147k |   5 |1709 |  48 |  48 |   0 |  1 |   0 |   0 | 8.000000e+00 | 9.000000e+00 |  12.50%| unknown
 time | node  | left  |LP iter|LP it/n|mem/heur|mdpt |vars |cons |rows |cuts |sepa|confs|strbr|  dualbound   | primalbound  |  gap   | compl. 
  1.8s|    11 |    12 |  1171 |  24.5 |  7155k |   6 |1709 |  48 |  48 |   0 |  1 |   0 |   0 | 8.000000e+00 | 9.000000e+00 |  12.50%| unknown
 time | node  | left  |LP iter|LP it/n|mem/heur|mdpt |vars |cons |rows |cuts |sepa|confs|strbr|  dualbound   | primalbound  |  gap   | compl. 
  2.0s|    12 |    13 |  1206 |  25.5 |  7155k |   6 |1709 |  48 |  48 |   0 |  1 |   0 |   0 | 8.000000e+00 | 9.000000e+00 |  12.50%| unknown
 time | node  | left  |LP iter|LP it/n|mem/heur|mdpt |vars |cons |rows |cuts |sepa|confs|strbr|  dualbound   | primalbound  |  gap   | compl. 
  2.2s|    13 |    14 |  1216 |  24.2 |  7158k |   7 |1709 |  48 |  48 |   0 |  1 |   0 |   0 | 8.000000e+00 | 9.000000e+00 |  12.50%| unknown
 time | node  | left  |LP iter|LP it/n|mem/heur|mdpt |vars |cons |rows |cuts |sepa|confs|strbr|  dualbound   | primalbound  |  gap   | compl. 
  2.3s|    14 |    15 |  1217 |  22.4 |  7160k |   8 |1709 |  48 |  48 |   0 |  1 |   0 |   0 | 8.000000e+00 | 9.000000e+00 |  12.50%| unknown
 time | node  | left  |LP iter|LP it/n|mem/heur|mdpt |vars |cons |rows |cuts |sepa|confs|strbr|  dualbound   | primalbound  |  gap   | compl. 
  2.5s|    15 |    16 |  1328 |  28.7 |  7313k |   9 |1864 |  48 |  48 |   0 |  1 |   0 |   0 | 8.000000e+00 | 9.000000e+00 |  12.50%| unknown
 time | node  | left  |LP iter|LP it/n|mem/heur|mdpt |vars |cons |rows |cuts |sepa|confs|strbr|  dualbound   | primalbound  |  gap   | compl. 
  2.7s|    16 |    17 |  1349 |  28.2 |  7315k |   9 |1864 |  48 |  48 |   0 |  1 |   0 |   0 | 8.000000e+00 | 9.000000e+00 |  12.50%| unknown
 time | node  | left  |LP iter|LP it/n|mem/heur|mdpt |vars |cons |rows |cuts |sepa|confs|strbr|  dualbound   | primalbound  |  gap   | compl. 
  2.9s|    17 |    18 |  1351 |  26.6 |  7325k |  10 |1864 |  48 |  48 |   0 |  1 |   0 |   0 | 8.000000e+00 | 9.000000e+00 |  12.50%| unknown
 time | node  | left  |LP iter|LP it/n|mem/heur|mdpt |vars |cons |rows |cuts |sepa|confs|strbr|  dualbound   | primalbound  |  gap   | compl. 
d 3.1s|    18 |     0 |  1435 |  29.9 |pscostdi|  11 |1864 |  48 |  48 |   0 |  1 |   0 |   0 | 8.000000e+00 | 8.000000e+00 |   0.00%| 100.00%

SCIP Status        : problem is solved [optimal solution found]
Solving Time (sec) : 3.11
Solving Nodes      : 18
Primal Bound       : +8.00000000000000e+00 (5 solutions)
Dual Bound         : +8.00000000000000e+00
Gap                : 0.00 %
Running with parallel: True bidir: True symbreak: True
Number of Nodes:  48
48.03512008101852% holds
starting cheapest insertion heuristic
Heuristic without TSP improvement:  10
Heuristic without TSP improvement time:  0.1
Heuristic Sol:  9
Heuristic total time:  0.1
[[0, 33, 46, 38], [12, 39, 22, 5, 6, 9, 8], [47, 25, 24, 43, 31, 40, 13, 36, 3], [45, 37, 34, 21, 7], [44, 15, 18, 19, 2, 1, 14, 29], [42, 11, 26], [41, 27, 30, 32, 16], [35, 23, 17, 4], [28, 10, 20]]
Instance path:  /home/htc/mghannam/SCRATCH/lccp-rust/data/t84_gr48.npcc
Timelimit:  7200
Heuristic without TSP improvement:  10
Heuristic without TSP improvement time:  0.1
Heuristic Sol:  9
Heuristic total time:  0.3
at 1 zero_duals: 39
at1, LP obj: 9.0 n_added_paths: 480
at 1 zero_duals: 20
at1, LP obj: 9.0 n_added_paths: 222
at 1 zero_duals: 9
at1, LP obj: 9.0 n_added_paths: 458
at 1 zero_duals: 13
at1, LP obj: 8.4 n_added_paths: 183
at 1 zero_duals: 5
at1, LP obj: 7.966845878136201 n_added_paths: 181
at 1 zero_duals: 4
at1, LP obj: 7.795793397231097 n_added_paths: 65
at 1 zero_duals: 5
at1, LP obj: 7.68014705882353 n_added_paths: 35
at 1 zero_duals: 2
at1, LP obj: 7.615131578947368 n_added_paths: 9
at 1 zero_duals: 2
at1, LP obj: 7.601298701298701 n_added_paths: 5
at 1 zero_duals: 9
at1, LP obj: 7.555555555555555 n_added_paths: 7
at 1 zero_duals: 5
Switching to elementary pricing
at1, LP obj: 7.545454545454546 n_added_paths: 7
updated lowerbound from 1.0 to 8
Gap too small = 0, stopping pricing with lb = 8
Gap too small = 0, stopping pricing with lb = 8
Gap too small = 0, stopping pricing with lb = 8
Gap too small = 0, stopping pricing with lb = 8
Gap too small = 0, stopping pricing with lb = 8
Gap too small = 0, stopping pricing with lb = 8
Gap too small = 0, stopping pricing with lb = 8
Gap too small = 0, stopping pricing with lb = 8
Gap too small = 0, stopping pricing with lb = 8
Gap too small = 0, stopping pricing with lb = 8
Gap too small = 0, stopping pricing with lb = 8
Gap too small = 0, stopping pricing with lb = 8
Gap too small = 0, stopping pricing with lb = 8
Gap too small = 0, stopping pricing with lb = 8
at 28 zero_duals: 10
Switching to elementary pricing
at28, LP obj: 8.247863247863249 n_added_paths: 155
Gap too small = 0, stopping pricing with lb = 8
Gap too small = 0, stopping pricing with lb = 8
Gap too small = 0, stopping pricing with lb = 8
Gap too small = 0, stopping pricing with lb = 8
Best solution found:
t_[45, 37, 34, 21, 7, 45] 1.0 1.0
checking cycle [45, 37, 34, 21, 7, 45]
[45, 37, 34, 21, 7, 45] 677 634
[33, 28, 30, 27, 32, 33] 1.0 1.0
checking cycle [33, 28, 30, 27, 32, 33]
[33, 28, 30, 27, 32, 33] 902 814
[39, 12, 8, 9, 22, 35, 39] 1.0 1.0
checking cycle [39, 12, 8, 9, 22, 35, 39]
[39, 12, 8, 9, 22, 35, 39] 819 813
[46, 38, 20, 10, 46] 1.0 1.0
checking cycle [46, 38, 20, 10, 46]
[46, 38, 20, 10, 46] 651 576
[29, 14, 6, 5, 4, 23, 17, 11, 29] 1.0 1.0
checking cycle [29, 14, 6, 5, 4, 23, 17, 11, 29]
[29, 14, 6, 5, 4, 23, 17, 11, 29] 967 884
[41, 25, 0, 16, 41] 1.0 1.0
checking cycle [41, 25, 0, 16, 41]
[41, 25, 0, 16, 41] 792 743
[44, 15, 1, 2, 19, 18, 42, 44] 1.0 1.0
checking cycle [44, 15, 1, 2, 19, 18, 42, 44]
[44, 15, 1, 2, 19, 18, 42, 44] 748 695
[47, 3, 36, 13, 26, 43, 31, 40, 24, 47] 1.0 1.0
checking cycle [47, 3, 36, 13, 26, 43, 31, 40, 24, 47]
[47, 3, 36, 13, 26, 43, 31, 40, 24, 47] 636 626
